
Gurobi 6.5.2 (win64) logging started 07/22/16 21:34:20


Gurobi 6.5.2 (win64) logging started 07/22/16 21:34:20

Optimize a model with 2460 rows, 769 columns and 6515 nonzeros
Coefficient statistics:
  Matrix range    [6e-08, 1e+03]
  Objective range [1e+00, 1e+00]
  Bounds range    [1e+00, 1e+00]
  RHS range       [6e-06, 2e+03]
Presolve removed 2220 rows and 524 columns
Presolve time: 0.00s
Presolved: 240 rows, 245 columns, 1046 nonzeros
Variable types: 245 continuous, 0 integer (0 binary)

Root relaxation: objective 1.726441e+02, 271 iterations, 0.00 seconds

    Nodes    |    Current Node    |     Objective Bounds      |     Work
 Expl Unexpl |  Obj  Depth IntInf | Incumbent    BestBd   Gap | It/Node Time

*    0     0               0     172.6440633  172.64406  0.00%     -    0s

Explored 0 nodes (271 simplex iterations) in 0.00 seconds
Thread count was 8 (of 8 available processors)

Optimal solution found (tolerance 1.00e-04)
Best objective 1.726440632796e+02, best bound 1.726440632796e+02, gap 0.0%

Wrote requested result file 'H1\instance16\\Results16EC_Sol3.lp'

